  50 

  37  30  12  36  45  37  32   7  39  33  24  36   4  34  45  22  19  26   5  33  16  15   5   9  22   1  43  26  32  39  29  32  29  34   7  18  49  32  23  43   5  18  20   4   7  27  42  34   4  47

 153

   3  14  13   4   6   5   3   2  15  12   4  10   7  25  12   5   8   3  24  17  25  17   2  17   1  10  16  19  20  17  15  14  19  15  16  14  22  22  14   5  10   6  25  14  24  25  13   1  13  24

